
Gurobi 12.0.2 (win64) logging started Sat Jun  7 11:43:36 2025

Set parameter LogFile to value "C:\Ioana\_uni\honours\slp\algorithm\Main_files\results\others\prox_tubules_new_1\Task_001_Sample005_irr_gurobi.log"
Gurobi Optimizer version 12.0.2 build v12.0.2rc0 (win64 - Windows 11.0 (26100.2))

CPU model: Intel(R) Core(TM) Ultra 5 125H, instruction set [SSE2|AVX|AVX2]
Thread count: 14 physical cores, 18 logical processors, using up to 18 threads

Non-default parameters:
TimeLimit  2200

Optimize a model with 47658 rows, 34797 columns and 147844 nonzeros
Model fingerprint: 0x89b91126
Variable types: 17403 continuous, 17394 integer (17394 binary)
Coefficient statistics:
  Matrix range     [1e-04, 8e+04]
  Objective range  [5e-05, 3e+00]
  Bounds range     [1e+00, 1e+03]
  RHS range        [1e+00, 1e+00]
Presolve removed 31246 rows and 21838 columns
Presolve time: 0.34s
Presolved: 16412 rows, 12959 columns, 54600 nonzeros
Variable types: 6413 continuous, 6546 integer (6546 binary)

Root relaxation: objective 9.301959e-04, 1484 iterations, 0.09 seconds (0.17 work units)

    Nodes    |    Current Node    |     Objective Bounds      |     Work
 Expl Unexpl |  Obj  Depth IntInf | Incumbent    BestBd   Gap | It/Node Time

     0     0    0.00093    0   11          -    0.00093      -     -    0s
H    0     0                       0.9186430    0.00093   100%     -    0s
     0     0    0.91058    0   18    0.91864    0.91058  0.88%     -    1s

Cutting planes:
  Cover: 4
  MIR: 6
  Flow cover: 4
  Flow path: 8
  Network: 3

Explored 1 nodes (3413 simplex iterations) in 1.49 seconds (1.44 work units)
Thread count was 18 (of 18 available processors)

Solution count 1: 0.918643 

Optimal solution found (tolerance 1.00e-04)
Best objective 9.186430276027e-01, best bound 9.186430276027e-01, gap 0.0000%
